6546
6530
6540
6580
6563
6608
6434
6398
6462
6506
6629
6509
6489
6546
6557
6398
6414
6495
6387
6434
6541
6420
6445
6537
6556
6445
6454
6485
6420
6264
6402
6551
6432
6315
6502
6518
6661
6533
6414
6468
6463
6589
6564
6523
6447
6476
6522
6398
6476
6636
6469
6558
6439
6594
6474
6580
6569
6534
6431
6450
6597
6521
6489
6561
6527
6520
6422
6520
6401
6460
6449
6581
6618
6517
6614
6525
6592
6419
6565
6626
6507
6464
6495
6577
6538
6485
6569
6509
6508
6532
6538
6471
6514
6514
6488
6594
6588
6572
6471
6555
